(set-option :produce-models true)
(set-logic QF_LRA)
(set-info :notes | Strip-packing problem.|)
(declare-fun x0 () Real)
(declare-fun y0 () Real)
(declare-fun x1 () Real)
(declare-fun y1 () Real)
(declare-fun x2 () Real)
(declare-fun y2 () Real)
(declare-fun x3 () Real)
(declare-fun y3 () Real)
(declare-fun x4 () Real)
(declare-fun y4 () Real)
(declare-fun x5 () Real)
(declare-fun y5 () Real)
(declare-fun x6 () Real)
(declare-fun y6 () Real)
(declare-fun x7 () Real)
(declare-fun y7 () Real)
(declare-fun x8 () Real)
(declare-fun y8 () Real)
(declare-fun z () Real)
(declare-fun c () Real)
(assert (and (= c z) (and (>= x0 0) 
(and (>= y0 0) 
(and (>= x1 0) 
(and (>= y1 0) 
(and (>= x2 0) 
(and (>= y2 0) 
(and (>= x3 0) 
(and (>= y3 0) 
(and (>= x4 0) 
(and (>= y4 0) 
(and (>= x5 0) 
(and (>= y5 0) 
(and (>= x6 0) 
(and (>= y6 0) 
(and (>= x7 0) 
(and (>= y7 0) 
(and (>= x8 0) 
(and (>= y8 0) 
(and (>= z 0) 
(and (>= c 0) 
(and (<= (+ x0 0.2336210025) z) 
(and (<= 0.9125719607 y0) 
(and (<= y0 1.0) 
(and (<= x0 (- 3.0769815741 0.2336210025)) 
(and (>= x0 0) 
(and (<= (+ x1 0.3161884496) z) 
(and (<= 0.8386403292 y1) 
(and (<= y1 1.0) 
(and (<= x1 (- 3.0769815741 0.3161884496)) 
(and (>= x1 0) 
(and (<= (+ x2 0.9164794788) z) 
(and (<= 0.8276256921 y2) 
(and (<= y2 1.0) 
(and (<= x2 (- 3.0769815741 0.9164794788)) 
(and (>= x2 0) 
(and (<= (+ x3 0.1729936804) z) 
(and (<= 0.7563270912 y3) 
(and (<= y3 1.0) 
(and (<= x3 (- 3.0769815741 0.1729936804)) 
(and (>= x3 0) 
(and (<= (+ x4 0.396704511) z) 
(and (<= 0.629429327 y4) 
(and (<= y4 1.0) 
(and (<= x4 (- 3.0769815741 0.396704511)) 
(and (>= x4 0) 
(and (<= (+ x5 0.2576334593) z) 
(and (<= 0.5345543514 y5) 
(and (<= y5 1.0) 
(and (<= x5 (- 3.0769815741 0.2576334593)) 
(and (>= x5 0) 
(and (<= (+ x6 0.7833609925) z) 
(and (<= 0.2452456199 y6) 
(and (<= y6 1.0) 
(and (<= x6 (- 3.0769815741 0.7833609925)) 
(and (>= x6 0) 
(and (<= (+ x7 0.050790977) z) 
(and (<= 0.1556719781 y7) 
(and (<= y7 1.0) 
(and (<= x7 (- 3.0769815741 0.050790977)) 
(and (>= x7 0) 
(and (<= (+ x8 0.5095666333) z) 
(and (<= 0.0360530109 y8) 
(and (<= y8 1.0) 
(and (<= x8 (- 3.0769815741 0.5095666333)) 
(and (>= x8 0) 
(and (<= c 3.0769815741) 
(and (or (<= (+ x0 0.2336210025) x1) (or (<= (+ x1 0.3161884496) x0) (or (>= (- y0 0.9125719607) y1) (or (>= (- y1 0.8386403292) y0))))) 
(and (or (<= (+ x0 0.2336210025) x2) (or (<= (+ x2 0.9164794788) x0) (or (>= (- y0 0.9125719607) y2) (or (>= (- y2 0.8276256921) y0))))) 
(and (or (<= (+ x0 0.2336210025) x3) (or (<= (+ x3 0.1729936804) x0) (or (>= (- y0 0.9125719607) y3) (or (>= (- y3 0.7563270912) y0))))) 
(and (or (<= (+ x0 0.2336210025) x4) (or (<= (+ x4 0.396704511) x0) (or (>= (- y0 0.9125719607) y4) (or (>= (- y4 0.629429327) y0))))) 
(and (or (<= (+ x0 0.2336210025) x5) (or (<= (+ x5 0.2576334593) x0) (or (>= (- y0 0.9125719607) y5) (or (>= (- y5 0.5345543514) y0))))) 
(and (or (<= (+ x0 0.2336210025) x6) (or (<= (+ x6 0.7833609925) x0) (or (>= (- y0 0.9125719607) y6) (or (>= (- y6 0.2452456199) y0))))) 
(and (or (<= (+ x0 0.2336210025) x7) (or (<= (+ x7 0.050790977) x0) (or (>= (- y0 0.9125719607) y7) (or (>= (- y7 0.1556719781) y0))))) 
(and (or (<= (+ x0 0.2336210025) x8) (or (<= (+ x8 0.5095666333) x0) (or (>= (- y0 0.9125719607) y8) (or (>= (- y8 0.0360530109) y0))))) 
(and (or (<= (+ x1 0.3161884496) x2) (or (<= (+ x2 0.9164794788) x1) (or (>= (- y1 0.8386403292) y2) (or (>= (- y2 0.8276256921) y1))))) 
(and (or (<= (+ x1 0.3161884496) x3) (or (<= (+ x3 0.1729936804) x1) (or (>= (- y1 0.8386403292) y3) (or (>= (- y3 0.7563270912) y1))))) 
(and (or (<= (+ x1 0.3161884496) x4) (or (<= (+ x4 0.396704511) x1) (or (>= (- y1 0.8386403292) y4) (or (>= (- y4 0.629429327) y1))))) 
(and (or (<= (+ x1 0.3161884496) x5) (or (<= (+ x5 0.2576334593) x1) (or (>= (- y1 0.8386403292) y5) (or (>= (- y5 0.5345543514) y1))))) 
(and (or (<= (+ x1 0.3161884496) x6) (or (<= (+ x6 0.7833609925) x1) (or (>= (- y1 0.8386403292) y6) (or (>= (- y6 0.2452456199) y1))))) 
(and (or (<= (+ x1 0.3161884496) x7) (or (<= (+ x7 0.050790977) x1) (or (>= (- y1 0.8386403292) y7) (or (>= (- y7 0.1556719781) y1))))) 
(and (or (<= (+ x1 0.3161884496) x8) (or (<= (+ x8 0.5095666333) x1) (or (>= (- y1 0.8386403292) y8) (or (>= (- y8 0.0360530109) y1))))) 
(and (or (<= (+ x2 0.9164794788) x3) (or (<= (+ x3 0.1729936804) x2) (or (>= (- y2 0.8276256921) y3) (or (>= (- y3 0.7563270912) y2))))) 
(and (or (<= (+ x2 0.9164794788) x4) (or (<= (+ x4 0.396704511) x2) (or (>= (- y2 0.8276256921) y4) (or (>= (- y4 0.629429327) y2))))) 
(and (or (<= (+ x2 0.9164794788) x5) (or (<= (+ x5 0.2576334593) x2) (or (>= (- y2 0.8276256921) y5) (or (>= (- y5 0.5345543514) y2))))) 
(and (or (<= (+ x2 0.9164794788) x6) (or (<= (+ x6 0.7833609925) x2) (or (>= (- y2 0.8276256921) y6) (or (>= (- y6 0.2452456199) y2))))) 
(and (or (<= (+ x2 0.9164794788) x7) (or (<= (+ x7 0.050790977) x2) (or (>= (- y2 0.8276256921) y7) (or (>= (- y7 0.1556719781) y2))))) 
(and (or (<= (+ x2 0.9164794788) x8) (or (<= (+ x8 0.5095666333) x2) (or (>= (- y2 0.8276256921) y8) (or (>= (- y8 0.0360530109) y2))))) 
(and (or (<= (+ x3 0.1729936804) x4) (or (<= (+ x4 0.396704511) x3) (or (>= (- y3 0.7563270912) y4) (or (>= (- y4 0.629429327) y3))))) 
(and (or (<= (+ x3 0.1729936804) x5) (or (<= (+ x5 0.2576334593) x3) (or (>= (- y3 0.7563270912) y5) (or (>= (- y5 0.5345543514) y3))))) 
(and (or (<= (+ x3 0.1729936804) x6) (or (<= (+ x6 0.7833609925) x3) (or (>= (- y3 0.7563270912) y6) (or (>= (- y6 0.2452456199) y3))))) 
(and (or (<= (+ x3 0.1729936804) x7) (or (<= (+ x7 0.050790977) x3) (or (>= (- y3 0.7563270912) y7) (or (>= (- y7 0.1556719781) y3))))) 
(and (or (<= (+ x3 0.1729936804) x8) (or (<= (+ x8 0.5095666333) x3) (or (>= (- y3 0.7563270912) y8) (or (>= (- y8 0.0360530109) y3))))) 
(and (or (<= (+ x4 0.396704511) x5) (or (<= (+ x5 0.2576334593) x4) (or (>= (- y4 0.629429327) y5) (or (>= (- y5 0.5345543514) y4))))) 
(and (or (<= (+ x4 0.396704511) x6) (or (<= (+ x6 0.7833609925) x4) (or (>= (- y4 0.629429327) y6) (or (>= (- y6 0.2452456199) y4))))) 
(and (or (<= (+ x4 0.396704511) x7) (or (<= (+ x7 0.050790977) x4) (or (>= (- y4 0.629429327) y7) (or (>= (- y7 0.1556719781) y4))))) 
(and (or (<= (+ x4 0.396704511) x8) (or (<= (+ x8 0.5095666333) x4) (or (>= (- y4 0.629429327) y8) (or (>= (- y8 0.0360530109) y4))))) 
(and (or (<= (+ x5 0.2576334593) x6) (or (<= (+ x6 0.7833609925) x5) (or (>= (- y5 0.5345543514) y6) (or (>= (- y6 0.2452456199) y5))))) 
(and (or (<= (+ x5 0.2576334593) x7) (or (<= (+ x7 0.050790977) x5) (or (>= (- y5 0.5345543514) y7) (or (>= (- y7 0.1556719781) y5))))) 
(and (or (<= (+ x5 0.2576334593) x8) (or (<= (+ x8 0.5095666333) x5) (or (>= (- y5 0.5345543514) y8) (or (>= (- y8 0.0360530109) y5))))) 
(and (or (<= (+ x6 0.7833609925) x7) (or (<= (+ x7 0.050790977) x6) (or (>= (- y6 0.2452456199) y7) (or (>= (- y7 0.1556719781) y6))))) 
(and (or (<= (+ x6 0.7833609925) x8) (or (<= (+ x8 0.5095666333) x6) (or (>= (- y6 0.2452456199) y8) (or (>= (- y8 0.0360530109) y6))))) 
(and (or (<= (+ x7 0.050790977) x8) (or (<= (+ x8 0.5095666333) x7) (or (>= (- y7 0.1556719781) y8) (or (>= (- y8 0.0360530109) y7))))) ))))))))))))))))))))))))))))))))))))))))))))))))))))))))))))))))))))))))))))))))))))))))))))))))))))))))
(minimize c)
(check-sat)
(get-objectives)
(exit)
